unknown
(model
; cardinality of BoundSet is 2
(declare-sort BoundSet 0)
; rep: @uc_BoundSet_0
; rep: @uc_BoundSet_1
; cardinality of UnboundSet is 1
(declare-sort UnboundSet 0)
(declare-fun groundTerm_3 () UnboundSet)
(define-fun IsBrownAndWhite ((BOUND_VARIABLE_407 BoundSet)) Bool true)
(define-fun IsChainedUp ((BOUND_VARIABLE_407 BoundSet)) Bool true)
(define-fun IsNearChair ((BOUND_VARIABLE_414 BoundSet) (BOUND_VARIABLE_415 BoundSet)) Bool true)
(define-fun IsRed ((BOUND_VARIABLE_407 BoundSet)) Bool true)
(define-fun IsChainedTo ((BOUND_VARIABLE_414 BoundSet) (BOUND_VARIABLE_415 BoundSet)) Bool false)
)
sat
(model
; cardinality of BoundSet is 1
(declare-sort BoundSet 0)
; rep: @uc_BoundSet_0
; cardinality of UnboundSet is 1
(declare-sort UnboundSet 0)
(declare-fun groundTerm_5 () UnboundSet)
(define-fun IsBrownAndWhite ((BOUND_VARIABLE_445 BoundSet)) Bool true)
(define-fun IsChainedUp ((BOUND_VARIABLE_445 BoundSet)) Bool true)
(define-fun IsNearChair ((BOUND_VARIABLE_452 BoundSet) (BOUND_VARIABLE_453 BoundSet)) Bool true)
(define-fun IsRed ((BOUND_VARIABLE_445 BoundSet)) Bool true)
(define-fun IsChainedTo ((BOUND_VARIABLE_452 BoundSet) (BOUND_VARIABLE_453 BoundSet)) Bool false)
)
